results/mps/FMS_02_deadline_heurTrue.mps
NAME JobShopModel
ROWS
 N  OBJ
 G  c0      
 L  c1      
 G  c2      
 L  c3      
 G  c4      
 L  c5      
 G  c6      
 G  c7      
 G  c8      
 E  c9      
 E  c10     
 E  c11     
 E  c12     
 L  c13     
 L  c14     
 L  c15     
 L  c16     
 L  c17     
 L  c18     
 G  c19     
 G  c20     
 G  c21     
 G  c22     
 G  c23     
 G  c24     
 G  c25     
 G  c26     
 G  c27     
 G  c28     
 G  c29     
 G  c30     
 G  c31     
 G  c32     
 G  c33     
 G  c34     
 G  c35     
 G  c36     
 G  c37     
 G  c38     
 G  c39     
 G  c40     
 G  c41     
 G  c42     
 G  c43     
 G  c44     
 G  c45     
 G  OF_constraint
COLUMNS
    MARKER    'MARKER'                 'INTORG'
    y[0,0,0]  c0        64
    y[0,0,0]  c1        64
    y[0,0,0]  c9        1
    y[0,0,0]  c13       -10000000
    y[0,0,0]  c21       -10000000
    y[0,0,0]  c22       -10000000
    y[0,0,0]  c25       -10000000
    y[0,0,0]  c26       -10000000
    y[0,0,0]  c29       -10000000
    y[0,0,0]  c30       -10000000
    y[0,0,1]  c2        71
    y[0,0,1]  c3        71
    y[0,0,1]  c9        1
    y[0,0,1]  c14       -10000000
    y[0,0,1]  c23       -10000000
    y[0,0,1]  c24       -10000000
    y[0,0,1]  c27       -10000000
    y[0,0,1]  c28       -10000000
    y[0,1,0]  c10       1
    y[0,1,0]  c15       -10000000
    y[0,1,0]  c19       -43
    y[0,1,0]  c21       -10000000
    y[0,1,0]  c22       -10000000
    y[0,1,0]  c29       -10000000
    y[0,1,0]  c30       -10000000
    y[0,1,0]  c31       -10000000
    y[0,1,0]  c32       -10000000
    y[0,1,0]  c39       -480
    y[1,0,1]  c4        43
    y[1,0,1]  c5        43
    y[1,0,1]  c11       1
    y[1,0,1]  c16       -10000000
    y[1,0,1]  c23       -10000000
    y[1,0,1]  c24       -10000000
    y[1,0,1]  c33       -10000000
    y[1,0,1]  c34       -10000000
    y[1,0,1]  c35       -10000000
    y[1,0,1]  c36       -10000000
    y[1,1,0]  c12       1
    y[1,1,0]  c17       -10000000
    y[1,1,0]  c20       -21
    y[1,1,0]  c25       -10000000
    y[1,1,0]  c26       -10000000
    y[1,1,0]  c31       -10000000
    y[1,1,0]  c32       -10000000
    y[1,1,0]  c42       -480
    y[1,1,1]  c12       1
    y[1,1,1]  c18       -10000000
    y[1,1,1]  c20       -35
    y[1,1,1]  c27       -10000000
    y[1,1,1]  c28       -10000000
    y[1,1,1]  c33       -10000000
    y[1,1,1]  c34       -10000000
    y[1,1,1]  c35       -10000000
    y[1,1,1]  c36       -10000000
    y[1,1,1]  c44       -480
    x[0,0,0,0]  OBJ       0
    x[0,0,0,1]  c21       10000000
    x[0,0,0,1]  c22       -10000000
    x[0,0,1,0]  c23       10000000
    x[0,0,1,0]  c24       -10000000
    x[0,0,1,1]  c25       10000000
    x[0,0,1,1]  c26       -10000000
    x[0,0,1,1]  c27       10000000
    x[0,0,1,1]  c28       -10000000
    x[0,1,0,0]  c29       10000000
    x[0,1,0,0]  c30       -10000000
    x[0,1,0,1]  OBJ       0
    x[0,1,1,0]  OBJ       0
    x[0,1,1,1]  c31       10000000
    x[0,1,1,1]  c32       -10000000
    x[1,0,0,0]  OBJ       0
    x[1,0,0,1]  OBJ       0
    x[1,0,1,0]  OBJ       0
    x[1,0,1,1]  c33       10000000
    x[1,0,1,1]  c34       -10000000
    x[1,1,0,0]  OBJ       0
    x[1,1,0,1]  OBJ       0
    x[1,1,1,0]  c35       10000000
    x[1,1,1,0]  c36       -10000000
    x[1,1,1,1]  OBJ       0
    s[0,0,0]  c0        1
    s[0,0,0]  c1        1
    s[0,0,0]  c13       1
    s[0,0,0]  c19       1
    s[0,0,0]  c21       -1
    s[0,0,0]  c22       1
    s[0,0,0]  c25       -1
    s[0,0,0]  c26       1
    s[0,0,0]  c29       1
    s[0,0,0]  c30       -1
    s[0,0,0]  c37       1
    s[0,0,1]  c2        1
    s[0,0,1]  c3        1
    s[0,0,1]  c14       1
    s[0,0,1]  c19       1
    s[0,0,1]  c23       -1
    s[0,0,1]  c24       1
    s[0,0,1]  c27       -1
    s[0,0,1]  c28       1
    s[0,0,1]  c38       1
    s[0,1,0]  c15       1
    s[0,1,0]  c19       -1
    s[0,1,0]  c21       1
    s[0,1,0]  c22       -1
    s[0,1,0]  c29       -1
    s[0,1,0]  c30       1
    s[0,1,0]  c31       -1
    s[0,1,0]  c32       1
    s[0,1,0]  c39       1
    s[0,1,0]  c40       1
    s[1,0,1]  c4        1
    s[1,0,1]  c5        1
    s[1,0,1]  c16       1
    s[1,0,1]  c20       1
    s[1,0,1]  c23       1
    s[1,0,1]  c24       -1
    s[1,0,1]  c33       -1
    s[1,0,1]  c34       1
    s[1,0,1]  c35       1
    s[1,0,1]  c36       -1
    s[1,0,1]  c41       1
    s[1,1,0]  c17       1
    s[1,1,0]  c20       -1
    s[1,1,0]  c25       1
    s[1,1,0]  c26       -1
    s[1,1,0]  c31       1
    s[1,1,0]  c32       -1
    s[1,1,0]  c42       1
    s[1,1,0]  c43       1
    s[1,1,1]  c18       1
    s[1,1,1]  c20       -1
    s[1,1,1]  c27       1
    s[1,1,1]  c28       -1
    s[1,1,1]  c33       1
    s[1,1,1]  c34       -1
    s[1,1,1]  c35       -1
    s[1,1,1]  c36       1
    s[1,1,1]  c44       1
    s[1,1,1]  c45       1
    Z_FO      OBJ       1
    Z_FO      OF_constraint  1
    C29       c0        -10000000
    C29       c1        -10000000
    C29       c6        1
    C29       OF_constraint  416
    C30       c2        -10000000
    C30       c3        -10000000
    C30       c7        1
    C30       OF_constraint  409
    C31       c4        -10000000
    C31       c5        -10000000
    C31       c8        1
    C31       OF_constraint  437
    MARKER    'MARKER'                 'INTEND'
RHS
    RHS1      c0        -9999520
    RHS1      c1        480
    RHS1      c2        -9999520
    RHS1      c3        480
    RHS1      c4        -9999520
    RHS1      c5        480
    RHS1      c9        1
    RHS1      c10       1
    RHS1      c11       1
    RHS1      c12       1
    RHS1      c21       -19999777
    RHS1      c22       -29999819
    RHS1      c23       -19999755
    RHS1      c24       -29999777
    RHS1      c25       -19999830
    RHS1      c26       -29999919
    RHS1      c27       -19999851
    RHS1      c28       -29999797
    RHS1      c29       -19999819
    RHS1      c30       -29999777
    RHS1      c31       -19999804
    RHS1      c32       -29999845
    RHS1      c33       -19999693
    RHS1      c34       -29999790
    RHS1      c35       -19999790
    RHS1      c36       -29999693
BOUNDS
 BV BND1      y[0,0,0]
 BV BND1      y[0,0,1]
 BV BND1      y[0,1,0]
 BV BND1      y[1,0,1]
 BV BND1      y[1,1,0]
 BV BND1      y[1,1,1]
 BV BND1      x[0,0,0,0]
 BV BND1      x[0,0,0,1]
 BV BND1      x[0,0,1,0]
 BV BND1      x[0,0,1,1]
 BV BND1      x[0,1,0,0]
 BV BND1      x[0,1,0,1]
 BV BND1      x[0,1,1,0]
 BV BND1      x[0,1,1,1]
 BV BND1      x[1,0,0,0]
 BV BND1      x[1,0,0,1]
 BV BND1      x[1,0,1,0]
 BV BND1      x[1,0,1,1]
 BV BND1      x[1,1,0,0]
 BV BND1      x[1,1,0,1]
 BV BND1      x[1,1,1,0]
 BV BND1      x[1,1,1,1]
 LI BND1      s[0,0,0]  0
 LI BND1      s[0,0,1]  0
 LI BND1      s[0,1,0]  0
 LI BND1      s[1,0,1]  0
 LI BND1      s[1,1,0]  0
 LI BND1      s[1,1,1]  0
 LI BND1      Z_FO      0
 BV BND1      C29     
 BV BND1      C30     
 BV BND1      C31     
QCMATRIX   OF_constraint
    s[0,0,0]  C29       -0.5
    C29       s[0,0,0]  -0.5
    s[0,0,1]  C30       -0.5
    C30       s[0,0,1]  -0.5
    s[1,0,1]  C31       -0.5
    C31       s[1,0,1]  -0.5
ENDATA
