results/log/FMS_02_deadline_heurTrue.log

Gurobi 10.0.1 (win64) logging started Sun Oct  8 04:17:23 2023

Set parameter LogFile to value "./results//log/FMS_02_deadline_heurTrue.log"
Gurobi Optimizer version 10.0.1 build v10.0.1rc0 (win64)

CPU model: AMD Ryzen 7 3700X 8-Core Processor, instruction set [SSE2|AVX|AVX2]
Thread count: 8 physical cores, 16 logical processors, using up to 16 threads

Optimize a model with 46 rows, 32 columns and 140 nonzeros
Model fingerprint: 0x4c8179fe
Model has 1 quadratic constraint
Variable types: 0 continuous, 32 integer (25 binary)
Coefficient statistics:
  Matrix range     [1e+00, 1e+07]
  QMatrix range    [1e+00, 1e+00]
  QLMatrix range   [1e+00, 4e+02]
  Objective range  [1e+00, 1e+00]
  Bounds range     [1e+00, 1e+00]
  RHS range        [1e+00, 3e+07]

User MIP start did not produce a new incumbent solution
User MIP start violates constraint initial_start_time_job0_stage0_machine0_constraint by 226.000000000

Presolve removed 20 rows and 16 columns
Presolve time: 0.00s
Presolved: 30 rows, 18 columns, 104 nonzeros
Variable types: 0 continuous, 18 integer (9 binary)
Found heuristic solution: objective 9999676.0000
Found heuristic solution: objective 445.0000000
Found heuristic solution: objective 443.0000000
Found heuristic solution: objective 379.0000000

Root relaxation: objective 0.000000e+00, 7 iterations, 0.00 seconds (0.00 work units)

    Nodes    |    Current Node    |     Objective Bounds      |     Work
 Expl Unexpl |  Obj  Depth IntInf | Incumbent    BestBd   Gap | It/Node Time

     0     0    0.00000    0    6  379.00000    0.00000   100%     -    0s
Another try with MIP start
     0     0  309.00000    0    1  379.00000  309.00000  18.5%     -    0s

Explored 1 nodes (11 simplex iterations) in 0.02 seconds (0.00 work units)
Thread count was 16 (of 16 available processors)

Solution count 4: 379 443 445 9.99968e+06 

Optimal solution found (tolerance 1.00e-04)
Best objective 3.790000000000e+02, best bound 3.790000000000e+02, gap 0.0000%
Warning: constraint name "precedence between 0,0 to 0,1 if x_[0,0,0,1,0]=0, i.e. 0,1 before 0,0" has a space
Warning: constraint name "precedence between 0,0 to 0,1 if x_[0,0,0,1,0]=0, i.e. 0,1 before 0,0" has a space
Warning: default constraint names used to write mps file
